p tw 70 9451 2 
1 3 
1 4 
1 5 
1 6 
1 7 
1 8 
1 9 
1 10 
1 11 
1 12 
1 13 
1 14 
1 15 
1 16 
1 17 
1 18 
1 19 
1 25 
1 30 
1 38 
1 42 
1 47 
1 55 
1 59 
1 60 
1 61 
2 3 
2 4 
2 5 
2 6 
2 7 
2 8 
2 9 
2 10 
2 11 
2 16 
2 20 
2 21 
2 22 
2 23 
2 24 
2 25 
2 26 
2 27 
2 31 
2 35 
2 46 
2 51 
2 55 
2 56 
2 57 
2 58 
3 4 
3 5 
3 6 
3 7 
3 8 
3 9 
3 10 
3 12 
3 13 
3 20 
3 22 
3 28 
3 29 
3 30 
3 31 
3 32 
3 33 
3 34 
3 48 
3 53 
3 57 
3 60 
3 62 
3 64 
3 66 
4 5 
4 6 
4 7 
4 8 
4 9 
4 10 
4 13 
4 18 
4 20 
4 21 
4 28 
4 35 
4 36 
4 37 
4 38 
4 39 
4 40 
4 45 
4 49 
4 53 
4 56 
4 61 
4 65 
4 67 
5 6 
5 7 
5 8 
5 9 
5 10 
5 11 
5 14 
5 22 
5 29 
5 34 
5 35 
5 37 
5 41 
5 42 
5 43 
5 44 
5 45 
5 49 
5 58 
5 59 
5 63 
5 66 
5 68 
6 7 
6 8 
6 9 
6 10 
6 12 
6 15 
6 21 
6 23 
6 33 
6 36 
6 41 
6 43 
6 46 
6 47 
6 48 
6 49 
6 50 
6 58 
6 60 
6 65 
6 69 
6 70 
7 8 
7 9 
7 10 
7 15 
7 17 
7 24 
7 27 
7 30 
7 32 
7 37 
7 39 
7 41 
7 44 
7 46 
7 51 
7 52 
7 53 
7 54 
7 59 
7 64 
7 65 
8 9 
8 10 
8 14 
8 17 
8 24 
8 26 
8 28 
8 33 
8 40 
8 43 
8 47 
8 50 
8 52 
8 55 
8 56 
8 62 
8 63 
8 64 
8 67 
8 68 
9 10 
9 16 
9 19 
9 25 
9 27 
9 29 
9 32 
9 36 
9 38 
9 45 
9 48 
9 51 
9 54 
9 62 
9 63 
9 67 
9 68 
9 69 
9 70 
10 18 
10 19 
10 23 
10 26 
10 31 
10 34 
10 39 
10 40 
10 42 
10 44 
10 50 
10 52 
10 54 
10 57 
10 61 
10 66 
10 69 
10 70 
11 12 
11 13 
11 14 
11 15 
11 16 
11 17 
11 18 
11 19 
11 20 
11 21 
11 22 
11 23 
11 24 
11 25 
11 26 
11 27 
11 34 
11 37 
11 49 
11 58 
11 59 
11 63 
11 66 
11 68 
12 13 
12 14 
12 15 
12 16 
12 17 
12 18 
12 19 
12 20 
12 23 
12 28 
12 29 
12 30 
12 31 
12 32 
12 33 
12 34 
12 36 
12 41 
12 46 
12 47 
12 48 
12 49 
12 50 
13 14 
13 15 
13 16 
13 17 
13 18 
13 19 
13 21 
13 22 
13 28 
13 35 
13 36 
13 37 
13 38 
13 39 
13 40 
13 48 
13 53 
13 57 
13 60 
13 62 
13 64 
13 66 
14 15 
14 16 
14 17 
14 18 
14 19 
14 22 
14 24 
14 29 
14 33 
14 35 
14 40 
14 41 
14 42 
14 43 
14 44 
14 45 
14 50 
14 55 
14 64 
14 67 
14 68 
15 16 
15 17 
15 18 
15 19 
15 21 
15 24 
15 30 
15 33 
15 37 
15 41 
15 43 
15 51 
15 52 
15 53 
15 54 
15 58 
15 60 
15 65 
15 69 
15 70 
16 17 
16 18 
16 19 
16 27 
16 29 
16 31 
16 35 
16 38 
16 46 
16 48 
16 51 
16 54 
16 55 
16 56 
16 57 
16 58 
16 63 
16 67 
16 70 
17 18 
17 19 
17 26 
17 27 
17 28 
17 32 
17 39 
17 43 
17 44 
17 46 
17 47 
17 52 
17 56 
17 59 
17 62 
17 63 
17 64 
17 65 
18 19 
18 20 
18 26 
18 31 
18 39 
18 42 
18 45 
18 49 
18 50 
18 53 
18 54 
18 56 
18 61 
18 65 
18 66 
18 67 
18 69 
19 23 
19 25 
19 32 
19 34 
19 36 
19 40 
19 44 
19 45 
19 51 
19 52 
19 57 
19 61 
19 62 
19 68 
19 69 
19 70 
20 21 
20 22 
20 23 
20 24 
20 25 
20 26 
20 27 
20 28 
20 29 
20 30 
20 31 
20 32 
20 33 
20 34 
20 45 
20 49 
20 53 
20 56 
20 61 
20 65 
20 67 
21 22 
21 23 
21 24 
21 25 
21 26 
21 27 
21 28 
21 33 
21 35 
21 36 
21 37 
21 38 
21 39 
21 40 
21 43 
21 58 
21 60 
21 65 
21 69 
21 70 
22 23 
22 24 
22 25 
22 26 
22 27 
22 29 
22 35 
22 41 
22 42 
22 43 
22 44 
22 45 
22 48 
22 53 
22 57 
22 60 
22 62 
22 64 
22 66 
23 24 
23 25 
23 26 
23 27 
23 34 
23 36 
23 40 
23 41 
23 44 
23 46 
23 47 
23 48 
23 49 
23 50 
23 52 
23 57 
23 61 
23 70 
24 25 
24 26 
24 27 
24 30 
24 33 
24 37 
24 40 
24 41 
24 50 
24 51 
24 52 
24 53 
24 54 
24 55 
24 64 
24 67 
24 68 
25 26 
25 27 
25 30 
25 32 
25 36 
25 38 
25 42 
25 45 
25 47 
25 51 
25 55 
25 59 
25 60 
25 61 
25 62 
25 68 
25 69 
26 27 
26 28 
26 31 
26 39 
26 42 
26 43 
26 47 
26 50 
26 52 
26 54 
26 56 
26 62 
26 63 
26 66 
26 69 
27 29 
27 32 
27 38 
27 39 
27 44 
27 46 
27 48 
27 54 
27 59 
27 63 
27 64 
27 65 
27 67 
27 70 
28 29 
28 30 
28 31 
28 32 
28 33 
28 34 
28 35 
28 36 
28 37 
28 38 
28 39 
28 40 
28 43 
28 47 
28 52 
28 56 
28 62 
28 63 
29 30 
29 31 
29 32 
29 33 
29 34 
29 35 
29 38 
29 41 
29 42 
29 43 
29 44 
29 45 
29 48 
29 54 
29 63 
29 67 
29 70 
30 31 
30 32 
30 33 
30 34 
30 37 
30 38 
30 41 
30 42 
30 47 
30 51 
30 52 
30 53 
30 54 
30 55 
30 59 
30 60 
30 61 
31 32 
31 33 
31 34 
31 35 
31 39 
31 42 
31 46 
31 50 
31 51 
31 54 
31 55 
31 56 
31 57 
31 58 
31 66 
31 69 
32 33 
32 34 
32 36 
32 39 
32 44 
32 45 
32 46 
32 51 
32 59 
32 62 
32 64 
32 65 
32 68 
32 69 
33 34 
33 40 
33 43 
33 50 
33 55 
33 58 
33 60 
33 64 
33 65 
33 67 
33 68 
33 69 
33 70 
34 37 
34 40 
34 44 
34 49 
34 52 
34 57 
34 58 
34 59 
34 61 
34 63 
34 66 
34 68 
34 70 
35 36 
35 37 
35 38 
35 39 
35 40 
35 41 
35 42 
35 43 
35 44 
35 45 
35 46 
35 51 
35 55 
35 56 
35 57 
35 58 
36 37 
36 38 
36 39 
36 40 
36 41 
36 45 
36 46 
36 47 
36 48 
36 49 
36 50 
36 51 
36 62 
36 68 
36 69 
37 38 
37 39 
37 40 
37 41 
37 49 
37 51 
37 52 
37 53 
37 54 
37 58 
37 59 
37 63 
37 66 
37 68 
38 39 
38 40 
38 42 
38 47 
38 48 
38 54 
38 55 
38 59 
38 60 
38 61 
38 63 
38 67 
38 70 
39 40 
39 42 
39 44 
39 46 
39 50 
39 54 
39 59 
39 64 
39 65 
39 66 
39 69 
40 44 
40 50 
40 52 
40 55 
40 57 
40 61 
40 64 
40 67 
40 68 
40 70 
41 42 
41 43 
41 44 
41 45 
41 46 
41 47 
41 48 
41 49 
41 50 
41 51 
41 52 
41 53 
41 54 
42 43 
42 44 
42 45 
42 47 
42 50 
42 54 
42 55 
42 59 
42 60 
42 61 
42 66 
42 69 
43 44 
43 45 
43 47 
43 52 
43 56 
43 58 
43 60 
43 62 
43 63 
43 65 
43 69 
43 70 
44 45 
44 46 
44 52 
44 57 
44 59 
44 61 
44 64 
44 65 
44 70 
45 49 
45 51 
45 53 
45 56 
45 61 
45 62 
45 65 
45 67 
45 68 
45 69 
46 47 
46 48 
46 49 
46 50 
46 51 
46 55 
46 56 
46 57 
46 58 
46 59 
46 64 
46 65 
47 48 
47 49 
47 50 
47 52 
47 55 
47 56 
47 59 
47 60 
47 61 
47 62 
47 63 
48 49 
48 50 
48 53 
48 54 
48 57 
48 60 
48 62 
48 63 
48 64 
48 66 
48 67 
48 70 
49 50 
49 53 
49 56 
49 58 
49 59 
49 61 
49 63 
49 65 
49 66 
49 67 
49 68 
50 54 
50 55 
50 64 
50 66 
50 67 
50 68 
50 69 
51 52 
51 53 
51 54 
51 55 
51 56 
51 57 
51 58 
51 62 
51 68 
51 69 
52 53 
52 54 
52 56 
52 57 
52 61 
52 62 
52 63 
52 70 
53 54 
53 56 
53 57 
53 60 
53 61 
53 62 
53 64 
53 65 
53 66 
53 67 
54 63 
54 66 
54 67 
54 69 
54 70 
55 56 
55 57 
55 58 
55 59 
55 60 
55 61 
55 64 
55 67 
55 68 
56 57 
56 58 
56 61 
56 62 
56 63 
56 65 
56 67 
57 58 
57 60 
57 61 
57 62 
57 64 
57 66 
57 70 
58 59 
58 60 
58 63 
58 65 
58 66 
58 68 
58 69 
58 70 
59 60 
59 61 
59 63 
59 64 
59 65 
59 66 
59 68 
60 61 
60 62 
60 64 
60 65 
60 66 
60 69 
60 70 
61 65 
61 67 
61 70 
62 63 
62 64 
62 66 
62 68 
62 69 
63 66 
63 67 
63 68 
63 70 
64 65 
64 66 
64 67 
64 68 
65 67 
65 69 
65 70 
66 68 
66 69 
67 68 
67 70 
68 69 
69 70 
